(set-logic BV) (define-fun origCir ((n247 Bool) (n325 Bool) (n254 Bool) (n207 Bool) (i48 Bool)) Bool (xor (and (xor n325 (not (and n254 n207))) n247) i48)) (synth-fun skel ((n247 Bool) (n325 Bool) (n254 Bool) (n207 Bool) (i48 Bool)) Bool) (declare-var n247 Bool) (declare-var n325 Bool) (declare-var n254 Bool) (declare-var n207 Bool) (declare-var i48 Bool) (constraint (= (origCir n247 n325 n254 n207 i48) (skel n247 n325 n254 n207 i48))) (check-synth)
